6347.37
0 1 2 3 4 5 6 7 8 9 10 11 16 17 34 0
0 12 13 15 18 20 21 145 0
0 22 23 24 25 27 28 30 31 33 37 40 41 44 46 47 52 0
0 29 32 35 36 39 42 43 45 49 50 53 58 88 0
0 38 48 51 54 55 56 59 60 62 64 0
0 57 61 63 65 67 68 69 72 73 124 0
0 66 70 71 75 76 77 79 81 83 84 85 86 103 0
0 74 78 80 82 87 91 93 94 110 0
0 89 90 92 96 107 116 140 0
0 95 97 98 100 101 104 105 106 108 114 121 137 0
0 99 109 111 115 119 122 129 0
0 102 112 113 117 118 123 125 126 130 131 134 0
0 127 128 132 133 135 136 138 139 141 143 144 147 148 0
0 146 149 14 19 142 120 150 26 0
